Running MiniSat on FULL_RUN_MINISAT\bd12a2b66110451b050bd5d2943b1854-ITC2021_Early_10.xml.cnf... 
============================[ Problem Statistics ]=============================
|                                                                             |
|  Number of variables:        249117                                         |
|  Number of clauses:          764929                                         |
|  Parse time:                   1.31 s                                       |
|                                                                             |
============================[ Search Statistics ]==============================
| Conflicts |          ORIGINAL         |          LEARNT          | Progress |
|           |    Vars  Clauses Literals |    Limit  Clauses Lit/Cl |          |
===============================================================================
|       100 |  189510   700514  1722344 |   256855       98     72 | 23.927 % |
|       250 |  189510   700514  1722344 |   282540      248    148 | 23.927 % |
|       475 |  189510   700514  1722344 |   310794      473    171 | 23.927 % |
|       812 |  189510   700483  1722281 |   341874      810    170 | 23.927 % |
|      1318 |  189510   700483  1722281 |   376061     1316    167 | 23.927 % |
|      2077 |  189510   700483  1722281 |   413667     2075    157 | 23.927 % |
|      3216 |  189510   700483  1722281 |   455034     3214    146 | 23.927 % |
|      4924 |  189510   700483  1722281 |   500537     4922    131 | 23.927 % |
|      7486 |  189510   700483  1722281 |   550591     7484    135 | 23.927 % |
|     11330 |  189510   700483  1722281 |   605650    11328    140 | 23.927 % |
|     17096 |  189510   700483  1722281 |   666216    17094    150 | 23.927 % |
|     25745 |  189510   700483  1722281 |   732837    25743    149 | 23.927 % |
ERROR: MiniSat process not found for FULL_RUN_MINISAT\bd8bc25be2b36c64b38459c17e815814-pcmax-scheduling-m11-1517-6802-UNSAT.sanitized.cnf 
Finished MiniSat on FULL_RUN_MINISAT\bd8bc25be2b36c64b38459c17e815814-pcmax-scheduling-m11-1517-6802-UNSAT.sanitized.cnf